data/CVRPLIB/Vrp-Set-XML100/instances/XML100_2116_18.vrp
NAME : XML100_2116_18
COMMENT : Generated by Queiroga, Sadykov, Uchoa, and Vidal (2021)
TYPE : CVRP
DIMENSION : 101
EDGE_WEIGHT_TYPE : EUC_2D
CAPACITY : 38
NODE_COORD_SECTION
1    500  500 
2    287  196 
3    308  514 
4    340  178 
5    248  107 
6    130  571 
7    706  218 
8    194  595 
9    975  867 
10   691  900 
11   44   568 
12   122  817 
13   972  250 
14   418  507 
15   806  654 
16   211  403 
17   960  606 
18   517  599 
19   614  179 
20   33   451 
21   555  652 
22   679  9   
23   448  801 
24   623  728 
25   393  930 
26   949  259 
27   952  25  
28   182  520 
29   638  659 
30   109  969 
31   712  740 
32   274  23  
33   272  555 
34   424  696 
35   602  349 
36   561  300 
37   962  900 
38   785  420 
39   156  964 
40   410  215 
41   108  300 
42   104  842 
43   102  760 
44   639  916 
45   891  575 
46   987  713 
47   975  559 
48   587  806 
49   698  974 
50   551  696 
51   739  668 
52   417  810 
53   868  596 
54   382  807 
55   506  466 
56   603  207 
57   381  980 
58   894  106 
59   37   93  
60   44   879 
61   200  150 
62   209  472 
63   613  527 
64   601  642 
65   502  389 
66   254  913 
67   171  110 
68   667  799 
69   848  851 
70   880  881 
71   547  463 
72   187  564 
73   83   413 
74   541  408 
75   497  375 
76   840  122 
77   632  927 
78   704  199 
79   431  573 
80   355  243 
81   35   326 
82   81   464 
83   961  852 
84   269  705 
85   805  176 
86   308  839 
87   328  212 
88   594  230 
89   688  917 
90   150  28  
91   236  757 
92   518  40  
93   836  51  
94   529  327 
95   810  885 
96   452  885 
97   373  103 
98   925  563 
99   680  243 
100  967  862 
101  961  614 
DEMAND_SECTION
1    0   
2    1   
3    1   
4    1   
5    1   
6    1   
7    1   
8    1   
9    1   
10   1   
11   1   
12   1   
13   1   
14   1   
15   1   
16   1   
17   1   
18   1   
19   1   
20   1   
21   1   
22   1   
23   1   
24   1   
25   1   
26   1   
27   1   
28   1   
29   1   
30   1   
31   1   
32   1   
33   1   
34   1   
35   1   
36   1   
37   1   
38   1   
39   1   
40   1   
41   1   
42   1   
43   1   
44   1   
45   1   
46   1   
47   1   
48   1   
49   1   
50   1   
51   1   
52   1   
53   1   
54   1   
55   1   
56   1   
57   1   
58   1   
59   1   
60   1   
61   1   
62   1   
63   1   
64   1   
65   1   
66   1   
67   1   
68   1   
69   1   
70   1   
71   1   
72   1   
73   1   
74   1   
75   1   
76   1   
77   1   
78   1   
79   1   
80   1   
81   1   
82   1   
83   1   
84   1   
85   1   
86   1   
87   1   
88   1   
89   1   
90   1   
91   1   
92   1   
93   1   
94   1   
95   1   
96   1   
97   1   
98   1   
99   1   
100  1   
101  1   
DEPOT_SECTION
1
-1
EOF
