data/CVRPLIB/Vrp-Set-XML100/solutions/XML100_2116_18.sol
Route #1: 13 2 32 27 61 15 40 80 72 81 19 10 5 71 7 83 90 42 11 41 59 29 38 65 85 56 24 95 22 51 53 33 78
Route #2: 54 64 74 93 39 79 86 3 1 4 60 66 58 89 31 96 91 21 92 26 57 75 84 12 25 37 98 6 77 18 55 87 35 34 73 70
Route #3: 17 20 49 47 43 76 48 88 9 94 68 69 36 8 99 82 45 100 16 46 97 44 52 14 50 30 67 23 28 63 62
Cost 8211
